RAW/CMTY/fspd-mid/CMT14Y.vrp_seed-5.out
821.7458258	0.413	147.943
