RAW/CMTY/fspd-mid/CMT14Y.vrp_seed-5.sol
Route #1: 90 87 86 83 82 84 85 88 89 91
Route #2: 98 96 95 94 92 93 97 100 99 2
Route #3: 5 3 7 8 11 9 6 4 1 75
Route #4: 43 42 44 45 46 48 51 50 49 47
Route #5: 67 65 62 74 72 61 64 68 66 69
Route #6: 21 22 26 28 30 29 27 25 24 20
Route #7: 32 33 34 36 39 38 37 35 31 52
Route #8: 23 13 17 18 19 15 16 14 12 10
Route #9: 57 55 54 53 56 58 60 59 40 41
Route #10: 81 78 76 71 70 73 77 79 80 63
Cost 821.745826